{"0": [[[0.0, 19.0, 5.0, 1.0, 15.0, -1.0, -1.0, 0.0, 15.0], [1.0, 15.0, 27.0, 1.0, 15.0, -1.0, -1.0, 0.0, 15.0], [2.0, 31.0, 22.0, 1.0, 5.0, -1.0, -1.0, 0.0, 5.0], [3.0, 36.0, 29.0, 1.0, 10.0, -1.0, -1.0, 0.0, 10.0], [4.0, 52.0, 41.0, 1.0, 10.0, -1.0, -1.0, 0.0, 10.0], [5.0, 65.0, 59.0, 1.0, 15.0, -1.0, -1.0, 0.0, 15.0], [6.0, 79.0, 64.0, 1.0, 10.0, -1.0, -1.0, 0.0, 10.0], [7.0, 76.0, 79.0, 1.0, 5.0, -1.0, -1.0, 0.0, 5.0], [8.0, 87.0, 66.0, 1.0, 5.0, -1.0, -1.0, 0.0, 5.0], [9.0, 30.0, 94.0, 1.0, 10.0, -1.0, -1.0, 0.0, 10.0], [10.0, 29.0, 97.0, 1.0, 10.0, -1.0, -1.0, 0.0, 10.0], [11.0, 57.0, 91.0, 1.0, 15.0, -1.0, -1.0, 0.0, 15.0]], 12],
"1": [[[0.0, 4.0, 19.0, 1.0, 15.0, -1.0, -1.0, 0.0, 15.0], [1.0, 19.0, 37.0, 1.0, 10.0, -1.0, -1.0, 0.0, 10.0], [2.0, 35.0, 39.0, 1.0, 5.0, -1.0, -1.0, 0.0, 5.0], [3.0, 23.0, 38.0, 1.0, 10.0, -1.0, -1.0, 0.0, 10.0], [4.0, 4.0, 42.0, 1.0, 10.0, -1.0, -1.0, 0.0, 10.0], [5.0, 57.0, 50.0, 1.0, 15.0, -1.0, -1.0, 0.0, 15.0], [6.0, 47.0, 56.0, 1.0, 5.0, -1.0, -1.0, 0.0, 5.0], [7.0, 77.0, 46.0, 1.0, 15.0, -1.0, -1.0, 0.0, 15.0], [0.0, 0.0, 0.0, 0.0, 0.0, 0.0, 0.0, 0.0, 0.0], [0.0, 0.0, 0.0, 0.0, 0.0, 0.0, 0.0, 0.0, 0.0], [0.0, 0.0, 0.0, 0.0, 0.0, 0.0, 0.0, 0.0, 0.0], [0.0, 0.0, 0.0, 0.0, 0.0, 0.0, 0.0, 0.0, 0.0]], 8],
"2": [[[0.0, 5.0, 4.0, 1.0, 15.0, -1.0, -1.0, 0.0, 15.0], [1.0, 4.0, 50.0, 1.0, 15.0, -1.0, -1.0, 0.0, 15.0], [2.0, 13.0, 53.0, 1.0, 5.0, -1.0, -1.0, 0.0, 5.0], [3.0, 71.0, 51.0, 1.0, 15.0, -1.0, -1.0, 0.0, 15.0], [4.0, 71.0, 69.0, 1.0, 10.0, -1.0, -1.0, 0.0, 10.0], [5.0, 23.0, 84.0, 1.0, 15.0, -1.0, -1.0, 0.0, 15.0], [6.0, 29.0, 84.0, 1.0, 10.0, -1.0, -1.0, 0.0, 10.0], [7.0, 53.0, 87.0, 1.0, 5.0, -1.0, -1.0, 0.0, 5.0], [8.0, 75.0, 87.0, 1.0, 10.0, -1.0, -1.0, 0.0, 10.0], [0.0, 0.0, 0.0, 0.0, 0.0, 0.0, 0.0, 0.0, 0.0], [0.0, 0.0, 0.0, 0.0, 0.0, 0.0, 0.0, 0.0, 0.0], [0.0, 0.0, 0.0, 0.0, 0.0, 0.0, 0.0, 0.0, 0.0]], 9],
"3": [[[0.0, 6.0, 5.0, 1.0, 10.0, -1.0, -1.0, 0.0, 10.0], [1.0, 8.0, 15.0, 1.0, 15.0, -1.0, -1.0, 0.0, 15.0], [2.0, 24.0, 13.0, 1.0, 10.0, -1.0, -1.0, 0.0, 10.0], [3.0, 71.0, 3.0, 1.0, 10.0, -1.0, -1.0, 0.0, 10.0], [4.0, 5.0, 53.0, 1.0, 5.0, -1.0, -1.0, 0.0, 5.0], [5.0, 57.0, 43.0, 1.0, 10.0, -1.0, -1.0, 0.0, 10.0], [6.0, 65.0, 52.0, 1.0, 15.0, -1.0, -1.0, 0.0, 15.0], [7.0, 66.0, 46.0, 1.0, 10.0, -1.0, -1.0, 0.0, 10.0], [8.0, 97.0, 70.0, 1.0, 10.0, -1.0, -1.0, 0.0, 10.0], [9.0, 46.0, 87.0, 1.0, 10.0, -1.0, -1.0, 0.0, 10.0], [10.0, 41.0, 96.0, 1.0, 10.0, -1.0, -1.0, 0.0, 10.0], [0.0, 0.0, 0.0, 0.0, 0.0, 0.0, 0.0, 0.0, 0.0]], 11],
"4": [[[0.0, 6.0, 23.0, 1.0, 15.0, -1.0, -1.0, 0.0, 15.0], [1.0, 8.0, 32.0, 1.0, 5.0, -1.0, -1.0, 0.0, 5.0], [2.0, 30.0, 35.0, 1.0, 15.0, -1.0, -1.0, 0.0, 15.0], [3.0, 2.0, 48.0, 1.0, 5.0, -1.0, -1.0, 0.0, 5.0], [4.0, 59.0, 59.0, 1.0, 10.0, -1.0, -1.0, 0.0, 10.0], [5.0, 74.0, 49.0, 1.0, 10.0, -1.0, -1.0, 0.0, 10.0], [6.0, 62.0, 62.0, 1.0, 5.0, -1.0, -1.0, 0.0, 5.0], [7.0, 88.0, 76.0, 1.0, 5.0, -1.0, -1.0, 0.0, 5.0], [8.0, 42.0, 85.0, 1.0, 10.0, -1.0, -1.0, 0.0, 10.0], [9.0, 69.0, 87.0, 1.0, 10.0, -1.0, -1.0, 0.0, 10.0], [0.0, 0.0, 0.0, 0.0, 0.0, 0.0, 0.0, 0.0, 0.0], [0.0, 0.0, 0.0, 0.0, 0.0, 0.0, 0.0, 0.0, 0.0]], 10],
"5": [[[0.0, 70.0, 15.0, 1.0, 10.0, -1.0, -1.0, 0.0, 10.0], [1.0, 10.0, 38.0, 1.0, 15.0, -1.0, -1.0, 0.0, 15.0], [2.0, 37.0, 26.0, 1.0, 15.0, -1.0, -1.0, 0.0, 15.0], [3.0, 90.0, 22.0, 1.0, 5.0, -1.0, -1.0, 0.0, 5.0], [4.0, 82.0, 29.0, 1.0, 10.0, -1.0, -1.0, 0.0, 10.0], [5.0, 2.0, 55.0, 1.0, 5.0, -1.0, -1.0, 0.0, 5.0], [6.0, 99.0, 71.0, 1.0, 5.0, -1.0, -1.0, 0.0, 5.0], [7.0, 90.0, 62.0, 1.0, 5.0, -1.0, -1.0, 0.0, 5.0], [8.0, 27.0, 97.0, 1.0, 10.0, -1.0, -1.0, 0.0, 10.0], [9.0, 30.0, 97.0, 1.0, 10.0, -1.0, -1.0, 0.0, 10.0], [10.0, 43.0, 92.0, 1.0, 5.0, -1.0, -1.0, 0.0, 5.0], [0.0, 0.0, 0.0, 0.0, 0.0, 0.0, 0.0, 0.0, 0.0]], 11],
"6": [[[0.0, 15.0, 19.0, 1.0, 15.0, -1.0, -1.0, 0.0, 15.0], [1.0, 14.0, 37.0, 1.0, 15.0, -1.0, -1.0, 0.0, 15.0], [2.0, 6.0, 28.0, 1.0, 5.0, -1.0, -1.0, 0.0, 5.0], [3.0, 25.0, 38.0, 1.0, 5.0, -1.0, -1.0, 0.0, 5.0], [4.0, 54.0, 50.0, 1.0, 15.0, -1.0, -1.0, 0.0, 15.0], [5.0, 76.0, 57.0, 1.0, 5.0, -1.0, -1.0, 0.0, 5.0], [6.0, 65.0, 47.0, 1.0, 10.0, -1.0, -1.0, 0.0, 10.0], [7.0, 69.0, 71.0, 1.0, 5.0, -1.0, -1.0, 0.0, 5.0], [8.0, 67.0, 68.0, 1.0, 15.0, -1.0, -1.0, 0.0, 15.0], [9.0, 85.0, 77.0, 1.0, 15.0, -1.0, -1.0, 0.0, 15.0], [10.0, 85.0, 63.0, 1.0, 5.0, -1.0, -1.0, 0.0, 5.0], [11.0, 22.0, 83.0, 1.0, 15.0, -1.0, -1.0, 0.0, 15.0]], 12],
"7": [[[0.0, 4.0, 2.0, 1.0, 5.0, -1.0, -1.0, 0.0, 5.0], [1.0, 23.0, 37.0, 1.0, 10.0, -1.0, -1.0, 0.0, 10.0], [2.0, 98.0, 26.0, 1.0, 15.0, -1.0, -1.0, 0.0, 15.0], [3.0, 52.0, 59.0, 1.0, 5.0, -1.0, -1.0, 0.0, 5.0], [4.0, 62.0, 49.0, 1.0, 10.0, -1.0, -1.0, 0.0, 10.0], [5.0, 97.0, 74.0, 1.0, 5.0, -1.0, -1.0, 0.0, 5.0], [6.0, 86.0, 62.0, 1.0, 10.0, -1.0, -1.0, 0.0, 10.0], [7.0, 34.0, 93.0, 1.0, 10.0, -1.0, -1.0, 0.0, 10.0], [8.0, 58.0, 97.0, 1.0, 10.0, -1.0, -1.0, 0.0, 10.0], [9.0, 78.0, 81.0, 1.0, 15.0, -1.0, -1.0, 0.0, 15.0], [0.0, 0.0, 0.0, 0.0, 0.0, 0.0, 0.0, 0.0, 0.0], [0.0, 0.0, 0.0, 0.0, 0.0, 0.0, 0.0, 0.0, 0.0]], 10],
"8": [[[0.0, 32.0, 6.0, 1.0, 15.0, -1.0, -1.0, 0.0, 15.0], [1.0, 37.0, 24.0, 1.0, 10.0, -1.0, -1.0, 0.0, 10.0], [2.0, 86.0, 23.0, 1.0, 15.0, -1.0, -1.0, 0.0, 15.0], [3.0, 47.0, 46.0, 1.0, 5.0, -1.0, -1.0, 0.0, 5.0], [4.0, 54.0, 44.0, 1.0, 15.0, -1.0, -1.0, 0.0, 15.0], [5.0, 70.0, 69.0, 1.0, 15.0, -1.0, -1.0, 0.0, 15.0], [6.0, 61.0, 74.0, 1.0, 15.0, -1.0, -1.0, 0.0, 15.0], [7.0, 90.0, 79.0, 1.0, 15.0, -1.0, -1.0, 0.0, 15.0], [8.0, 35.0, 96.0, 1.0, 10.0, -1.0, -1.0, 0.0, 10.0], [0.0, 0.0, 0.0, 0.0, 0.0, 0.0, 0.0, 0.0, 0.0], [0.0, 0.0, 0.0, 0.0, 0.0, 0.0, 0.0, 0.0, 0.0], [0.0, 0.0, 0.0, 0.0, 0.0, 0.0, 0.0, 0.0, 0.0]], 9],
"9": [[[0.0, 15.0, 17.0, 1.0, 5.0, -1.0, -1.0, 0.0, 5.0], [1.0, 24.0, 1.0, 1.0, 15.0, -1.0, -1.0, 0.0, 15.0], [2.0, 65.0, 11.0, 1.0, 5.0, -1.0, -1.0, 0.0, 5.0], [3.0, 63.0, 15.0, 1.0, 10.0, -1.0, -1.0, 0.0, 10.0], [4.0, 16.0, 29.0, 1.0, 5.0, -1.0, -1.0, 0.0, 5.0], [5.0, 10.0, 25.0, 1.0, 5.0, -1.0, -1.0, 0.0, 5.0], [6.0, 27.0, 35.0, 1.0, 5.0, -1.0, -1.0, 0.0, 5.0], [7.0, 37.0, 26.0, 1.0, 15.0, -1.0, -1.0, 0.0, 15.0], [8.0, 45.0, 51.0, 1.0, 10.0, -1.0, -1.0, 0.0, 10.0], [9.0, 34.0, 71.0, 1.0, 10.0, -1.0, -1.0, 0.0, 10.0], [10.0, 68.0, 71.0, 1.0, 5.0, -1.0, -1.0, 0.0, 5.0], [11.0, 24.0, 94.0, 1.0, 15.0, -1.0, -1.0, 0.0, 15.0]], 12]}